NAME: rue_15_10
TYPE: TSP
DIMENSION: 15
EDGE_WEIGHT_TYPE: EUC_2D
NODE_COORD_SECTION
1 9 25
2 25 16
3 68 61
4 88 59
5 80 17
6 49 10
7 11 94
8 95 87
9 53 3
10 99 28
11 54 5
12 67 32
13 99 2
14 15 14
15 35 84
